Route #1: 44 14 40 6 48 27 19 5 47 4 12 50 13 22 9 24 25 43 18 2 20 30 29 33
Route #2: 
Route #3: 41 3 37 34 8 46 31 17 10 11 38 28 15 23
Route #4: 
Route #5: 42 36 39 35 1 16
Route #6: 49 32 21 26 7 45
Route #7: 
Route #8: 
cost 1419.3634686860817
